
obj(15). small(15).
 loc(5).
worktable(1).obj(1).
big(1).obj(1).
obj(1). loc(1).
closet(2).obj(2).
big(2).obj(2).
obj(2). loc(2).
container(2).obj(2).
obj(2). container(2).
microwave(3).obj(3).
big(3).obj(3).
obj(3). loc(3).
container(3).obj(3).
obj(3). container(3).
plant(4).obj(4).
big(4).obj(4).
obj(4). loc(4).
sofa(5).obj(5).
big(5).obj(5).
obj(5). loc(5).
human(6).obj(6).
big(6).obj(6).
obj(6). loc(6).
teapoy(7).obj(7).
big(7).obj(7).
obj(7). loc(7).
can(8).obj(8).
small(8).obj(8).
red(8).obj(8).
obj(8). obj(2). container(2).
can(9).obj(9).
small(9).obj(9).
green(9).obj(9).
obj(9). loc(4).
can(10).obj(10).
small(10).obj(10).
black(10).obj(10).
obj(10). obj(3). container(3).
can(11).obj(11).
small(11).obj(11).
white(11).obj(11).
obj(11). loc(7).
bottle(12).obj(12).
small(12).obj(12).
red(12).obj(12).
bottle(13).obj(13).
small(13).obj(13).
blue(13).obj(13).
book(14).obj(14).
small(14).obj(14).
red(14).obj(14).
book(15).obj(15).
small(15).obj(15).
yellow(15).obj(15).
obj(12). loc(1).
obj(13). obj(2). container(2).
obj(14). loc(5).
